226637
226637
226637
226637
223548
223548
223548
223548
223548
223548
221416
221416
219906
219906
216644
216644
216644
216644
216644
214203
207737
207737
207737
207737
207737
207737
207737
204983
204983
204983
204983
204187
204187
204187
204187
203750
203750
203750
203750
203750
203750
203750
203750
203750
201605
201605
201605
201605
201394
201394
201394
200607
200607
200607
200607
200607
200607
200607
200189
198982
198982
198982
198982
198982
198982
198982
198982
197629
197629
197629
197629
197629
197629
197620
197620
197620
197426
197176
197176
196999
196999
196999
196999
196999
196999
196999
196999
196999
196999
196999
196999
196458
196458
196458
196458
194695
194695
194695
194695
194695
